! RHF def2-SVP TightSCF

%cis     # Configuration Interaction with Singles (одноразово збіджені детермінінти )
nroots 3 # Число (кількість) збуджених станів молекули (атома) які треба прорахувати
iroot 1  # Стан, по яклму виконується оптимізація геометрії
end

%paras
    R = 0.4,3.5,25
end


* int 0 1
   H     0     0     0        0.00000        0.00000        0.00000
   H     1     0     0        {R}          0.00000        0.00000
*