! RHF OPT def2-SVP

%paras
    R = 0.4,3.5,25
end


* int 0 1
   H     0     0     0        0.00000        0.00000        0.00000
   H     1     0     0        {R}           0.00000        0.00000
*