! Opt NumFreq

%elprop Polar 1 end


* int 0 1
   H     0     0     0        0.00000     0.00000        0.00000
   H     1     0     0        0.74000     0.00000        0.00000
*