! RHF SVP SP PrintMOs
%casscf
    Nel 1
    Norb 3
    Nroots 1
end
#%paras
    #vb = 0.5,3.5,50
#end

* int 0 1
   H     0     0     0        0.00000     0.00000        0.00000
   H     1     0     0        0.74        0.00000        0.00000
*

