# Молекула водню H2 Q = +2-1 = +1; M = 2 * S + 1 = 2 * 0 + 1 = 1

! PrintMOs RHF OPT STO-3G 

* xyz 0 1
   H       0.00000        0.00000       0.00000
   H       3.80000        0.00000       0.00000
*