! RHF SP def2-SVP 

* int 0 1
   O     0     0     0        0.00000        0.00000        0.00000
   O     1     0     0        1.31600        0.00000        0.00000
*