! RHF OPT AnFREQ def2-SVP 

* int 0 1
  Li     0     0     0        0.00000        0.00000        0.00000
   H     1     0     0        1.67693        0.00000        0.00000
*