! B3LYP def2-SVP Opt
* xyz 0 1
C  0.0  0.0  0.0
O  0.0  0.0  1.2
H  0.9 -0.1 -0.4
H -0.9 -0.1 -0.4
*