! RHF OPT AnFreq def2-SVP

* int 0 1
   O     0     0     0        0.00000        0.00000        0.00000
   H     1     0     0        0.99025        0.00000        0.00000
   H     1     2     0        0.99025      104.51004        0.00000
*
