# Молекула водню H2 Q = +2-1 = +1; M = 2 * S + 1 = 2 * 0 + 1 = 1

! PrintMOs ROHF SP STO-3G


* xyz -1 2
   H       0.00000        0.00000       0.00000
   H       0.80000        0.00000       0.00000
*
